p cnf 240 649
1 0
2 0
3 0
4 0
5 0
6 0
-7 0
8 0
9 0
10 0
11 0
12 -13 0
-14 12 0
-15 12 0
-16 12 0
12 -17 0
12 -18 0
12 -19 0
12 -20 0
12 -21 0
-22 12 0
-23 12 0
24 0
1 -12 0
-1 12 0
-14 25 0
-15 25 0
-16 25 0
-17 25 0
-18 25 0
-19 25 0
-20 25 0
-21 25 0
-22 25 0
-23 25 0
26 0
27 -25 0
-27 25 0
-15 28 0
-16 28 0
-17 28 0
-18 28 0
-19 28 0
-20 28 0
-21 28 0
-22 28 0
-23 28 0
29 0
30 -28 0
-30 28 0
-16 31 0
-17 31 0
-18 31 0
-19 31 0
-20 31 0
-21 31 0
-22 31 0
-23 31 0
32 0
33 -31 0
-33 31 0
-17 34 0
-18 34 0
-19 34 0
-20 34 0
-21 34 0
-22 34 0
-23 34 0
35 0
36 -34 0
-36 34 0
-18 37 0
-19 37 0
-20 37 0
-21 37 0
-22 37 0
-23 37 0
18 19 20 21 22 23 -37 0
38 -37 0
-38 37 0
39 -37 0
-39 37 0
40 -37 0
-40 37 0
41 -37 0
-41 37 0
42 -37 0
-42 37 0
-23 43 0
-18 43 0
-19 43 0
-20 43 0
-21 43 0
-22 43 0
23 18 19 20 21 22 -43 0
44 -43 0
-44 43 0
-45 46 0
-47 46 0
46 -48 0
-49 46 0
46 -50 0
46 -51 0
-52 46 0
-53 46 0
54 0
2 -46 0
-2 46 0
-47 55 0
-48 55 0
-49 55 0
-50 55 0
-51 55 0
-52 55 0
-53 55 0
56 0
57 -55 0
-57 55 0
-48 58 0
-49 58 0
-50 58 0
-51 58 0
-52 58 0
-53 58 0
59 0
60 -58 0
-60 58 0
-49 61 0
-50 61 0
-51 61 0
-52 61 0
-53 61 0
49 50 51 52 53 -61 0
62 -61 0
-62 61 0
63 -61 0
-63 61 0
64 -61 0
-64 61 0
65 -61 0
-65 61 0
66 -61 0
-66 61 0
67 -68 0
-69 67 0
67 -70 0
67 -71 0
67 -72 0
67 -73 0
-74 67 0
-75 67 0
-76 67 0
67 -77 0
-78 67 0
79 0
3 -67 0
-3 67 0
-69 80 0
-70 80 0
-71 80 0
-72 80 0
-73 80 0
-74 80 0
-75 80 0
-76 80 0
-77 80 0
-78 80 0
81 0
82 -80 0
-82 80 0
-70 83 0
-71 83 0
-72 83 0
-73 83 0
-74 83 0
-75 83 0
-76 83 0
-77 83 0
-78 83 0
84 0
85 -83 0
-85 83 0
-71 86 0
-72 86 0
-73 86 0
-74 86 0
-75 86 0
-76 86 0
-77 86 0
-78 86 0
87 0
88 -86 0
-88 86 0
-72 89 0
-73 89 0
-74 89 0
-75 89 0
-76 89 0
-77 89 0
-78 89 0
90 0
91 -89 0
-91 89 0
-73 92 0
-74 92 0
-75 92 0
-76 92 0
-77 92 0
-78 92 0
93 0
94 -92 0
-94 92 0
95 -92 0
-95 92 0
96 -92 0
-96 92 0
97 -92 0
-97 92 0
98 -92 0
-98 92 0
99 -92 0
-99 92 0
-72 100 0
-73 100 0
-74 100 0
-75 100 0
-76 100 0
-77 100 0
-78 100 0
100 -101 0
100 -102 0
100 -103 0
-104 100 0
105 0
4 -100 0
-4 100 0
-72 106 0
-73 106 0
-74 106 0
-75 106 0
-76 106 0
-77 106 0
-78 106 0
-102 106 0
-103 106 0
-104 106 0
107 0
108 -106 0
-108 106 0
-72 109 0
-73 109 0
-74 109 0
-75 109 0
-76 109 0
-77 109 0
-78 109 0
-103 109 0
-104 109 0
110 0
111 -109 0
-111 109 0
-72 112 0
-73 112 0
-74 112 0
-75 112 0
-76 112 0
-77 112 0
-78 112 0
-104 112 0
113 0
114 -112 0
-114 112 0
-49 115 0
-50 115 0
-51 115 0
-52 115 0
-53 115 0
115 -116 0
115 -117 0
-118 115 0
115 -119 0
120 0
5 -115 0
-5 115 0
-49 121 0
-50 121 0
-51 121 0
-52 121 0
-53 121 0
-117 121 0
-118 121 0
-119 121 0
122 0
123 -121 0
-123 121 0
-49 124 0
-50 124 0
-51 124 0
-52 124 0
-53 124 0
-118 124 0
-119 124 0
125 0
126 -124 0
-126 124 0
-49 127 0
-50 127 0
-51 127 0
-52 127 0
-53 127 0
-119 127 0
128 0
129 -127 0
-129 127 0
-130 131 0
131 -132 0
131 -133 0
-134 131 0
130 132 133 134 -131 0
6 -131 0
-6 131 0
-132 135 0
-133 135 0
-134 135 0
132 133 134 -135 0
136 -135 0
-136 135 0
-133 137 0
-134 137 0
133 134 -137 0
138 -137 0
-138 137 0
7 -134 0
-7 134 0
-49 139 0
-50 139 0
-51 139 0
-52 139 0
-53 139 0
139 -140 0
-141 139 0
139 -142 0
-143 139 0
144 0
8 -139 0
-8 139 0
-49 145 0
-50 145 0
-51 145 0
-52 145 0
-53 145 0
-141 145 0
-142 145 0
-143 145 0
146 0
147 -145 0
-147 145 0
-49 148 0
-50 148 0
-51 148 0
-52 148 0
-53 148 0
-142 148 0
-143 148 0
149 0
150 -148 0
-150 148 0
-49 151 0
-50 151 0
-51 151 0
-52 151 0
-53 151 0
-143 151 0
152 0
153 -151 0
-153 151 0
-154 155 0
-156 155 0
-157 155 0
155 -158 0
-159 155 0
-160 155 0
155 -161 0
-162 155 0
155 -163 0
155 -164 0
165 0
9 -155 0
-9 155 0
-156 166 0
-157 166 0
-158 166 0
-159 166 0
-160 166 0
-161 166 0
-162 166 0
-163 166 0
-164 166 0
167 0
168 -166 0
-168 166 0
-157 169 0
-158 169 0
-159 169 0
-160 169 0
-161 169 0
-162 169 0
-163 169 0
-164 169 0
170 0
171 -169 0
-171 169 0
-158 172 0
-159 172 0
-160 172 0
-161 172 0
-162 172 0
-163 172 0
-164 172 0
173 0
174 -172 0
-174 172 0
-159 175 0
-160 175 0
-161 175 0
-162 175 0
-163 175 0
-164 175 0
176 0
177 -175 0
-177 175 0
-160 178 0
-161 178 0
-162 178 0
-163 178 0
-164 178 0
160 161 162 163 164 -178 0
179 -178 0
-179 178 0
-161 180 0
-162 180 0
-163 180 0
-164 180 0
161 162 163 164 -180 0
181 -180 0
-181 180 0
182 -180 0
-182 180 0
183 -180 0
-183 180 0
184 -180 0
-184 180 0
185 -186 0
185 -187 0
-188 185 0
-189 185 0
-190 185 0
185 -191 0
-192 185 0
-193 185 0
-194 185 0
185 -195 0
185 -196 0
197 0
10 -185 0
-10 185 0
-187 198 0
-188 198 0
-189 198 0
-190 198 0
-191 198 0
-192 198 0
-193 198 0
-194 198 0
-195 198 0
-196 198 0
199 0
200 -198 0
-200 198 0
-188 201 0
-189 201 0
-190 201 0
-191 201 0
-192 201 0
-193 201 0
-194 201 0
-195 201 0
-196 201 0
202 0
203 -201 0
-203 201 0
-189 204 0
-190 204 0
-191 204 0
-192 204 0
-193 204 0
-194 204 0
-195 204 0
-196 204 0
205 0
206 -204 0
-206 204 0
-190 207 0
-191 207 0
-192 207 0
-193 207 0
-194 207 0
-195 207 0
-196 207 0
208 0
209 -207 0
-209 207 0
-191 210 0
-192 210 0
-193 210 0
-194 210 0
-195 210 0
-196 210 0
211 0
212 -210 0
-212 210 0
213 -210 0
-213 210 0
214 -210 0
-214 210 0
215 -210 0
-215 210 0
216 -210 0
-216 210 0
217 -210 0
-217 210 0
-161 218 0
-162 218 0
-163 218 0
-164 218 0
218 -219 0
-220 218 0
-221 218 0
218 -222 0
223 0
11 -218 0
-11 218 0
-161 224 0
-162 224 0
-163 224 0
-164 224 0
-220 224 0
-221 224 0
-222 224 0
225 0
226 -224 0
-226 224 0
-161 227 0
-162 227 0
-163 227 0
-164 227 0
-221 227 0
-222 227 0
228 0
229 -227 0
-229 227 0
-161 230 0
-162 230 0
-163 230 0
-164 230 0
-222 230 0
161 162 163 164 222 -230 0
231 -230 0
-231 230 0
13 -232 0
-232 -14 0
-232 -15 0
-232 -16 0
17 -232 0
18 -232 0
19 -232 0
20 -232 0
21 -232 0
-232 -22 0
-232 -23 0
-232 -45 0
-232 -47 0
48 -232 0
-232 -49 0
50 -232 0
51 -232 0
-232 -52 0
-232 -53 0
68 -232 0
-232 -69 0
70 -232 0
71 -232 0
72 -232 0
73 -232 0
-232 -74 0
-232 -75 0
-232 -76 0
77 -232 0
-232 -78 0
101 -232 0
102 -232 0
103 -232 0
-232 -104 0
116 -232 0
117 -232 0
-232 -118 0
119 -232 0
-232 -130 0
132 -232 0
133 -232 0
-232 -134 0
140 -232 0
-232 -141 0
142 -232 0
-232 -143 0
-232 -154 0
-232 -156 0
-232 -157 0
158 -232 0
-232 -159 0
-232 -160 0
161 -232 0
-232 -162 0
163 -232 0
164 -232 0
186 -232 0
187 -232 0
-232 -188 0
-232 -189 0
-232 -190 0
191 -232 0
-232 -192 0
-232 -193 0
-232 -194 0
195 -232 0
196 -232 0
219 -232 0
-232 -220 0
-232 -221 0
222 -232 0
232 0
-233 0
-234 0
-235 0
-236 0
-237 0
-238 0
-239 0
-240 0
